4
4
40
1 1.3 1.55 1.75 2.1
20 38 44 32 11 5 16 31 31 25 23 28 42 42 30 16 5 21 39 12 26 49 7 16 48 41 37 49 24 23 49 44 17 29 27 36 44 33 23 24 28 36 18 47 28 35 26 11 45 8 31 34 27 19 14 16 21 46 19 48 11 37 23 7 34 36 16 17 24 34 44 12 31 15 12 32 23 30 39 32 29 26 14 28 29 21 20 8 34 8 45 23 42 42 27 13 39 15 42 36 26 34 7 41 39 44 48 49 22 32 14 36 34 26 22 47 25 23 16 16 13 28 35 44 21 47 39 33 5 37 11 48 45 30 23 10 26 38 29 47 8 14 42 6 22 21 39 10 46 49 35 44 31 24 39 15 27 49 48 25 